NAME : XML100_3256_18
DIMENSION : 101
NB_CLUSTERS : 3
CLUSTERING_ALG : DBSCAN
CLUSTERING_PARAMS : eps(87), minSamples(3)
CLUSTERS
1 0
2 1 13 20 23 26 27 29 30 31 36 40 41 42 44 48 49 54 57 61 69 71 79 80 82 83 84 86 88 91 98
3 2 3 4 5 6 7 8 9 10 11 12 14 15 16 17 18 19 21 22 24 25 28 32 33 34 35 37 38 39 43 45 46 47 50 51 52 53 55 56 58 59 60 62 63 64 65 66 67 68 70 72 73 74 75 76 77 78 81 85 87 89 90 92 93 94 95 96 97 99 100
EOF